
******************************************************************************
This program contains Ipopt, a library for large-scale nonlinear optimization.
 Ipopt is released as open source code under the Eclipse Public License (EPL).
         For more information visit http://projects.coin-or.org/Ipopt

This version of Ipopt was compiled from source code available at
    https://github.com/IDAES/Ipopt as part of the Institute for the Design of
    Advanced Energy Systems Process Systems Engineering Framework (IDAES PSE
    Framework) Copyright (c) 2018-2019. See https://github.com/IDAES/idaes-pse.

This version of Ipopt was compiled using HSL, a collection of Fortran codes
    for large-scale scientific computation.  All technical papers, sales and
    publicity material resulting from use of the HSL codes within IPOPT must
    contain the following acknowledgement:
        HSL, a collection of Fortran codes for large-scale scientific
        computation. See http://www.hsl.rl.ac.uk.
******************************************************************************

This is Ipopt version 3.13.2, running with linear solver ma27.

Number of nonzeros in equality constraint Jacobian...:      808
Number of nonzeros in inequality constraint Jacobian.:        0
Number of nonzeros in Lagrangian Hessian.............:      702

Total number of variables............................:      351
                     variables with only lower bounds:      108
                variables with lower and upper bounds:      189
                     variables with only upper bounds:        0
Total number of equality constraints.................:      350
Total number of inequality constraints...............:        0
        inequality constraints with only lower bounds:        0
   inequality constraints with lower and upper bounds:        0
        inequality constraints with only upper bounds:        0

iter    objective    inf_pr   inf_du lg(mu)  ||d||  lg(rg) alpha_du alpha_pr  ls
   0  0.0000000e+00 4.79e-01 4.44e-16  -1.0 0.00e+00    -  0.00e+00 0.00e+00   0
   1  3.2136774e-01 4.22e-01 1.56e+03  -1.0 2.86e+05    -  6.77e-01 1.22e-01h  1
   2  3.7210149e-01 4.18e-01 1.63e+03  -1.0 3.16e+05    -  6.98e-01 1.04e-02h  1
   3  2.9282148e+01 7.08e-02 1.52e+04  -1.0 3.23e+05    -  7.04e-01 9.90e-01h  1
   4  4.0549053e+01 3.12e-03 2.39e+02  -1.0 6.54e+04    -  9.33e-01 9.90e-01h  1
   5  4.1018140e+01 3.61e-05 3.83e+01  -1.0 2.62e+03    -  9.90e-01 9.90e-01h  1
   6  4.1018967e+01 3.56e-05 1.12e+07  -1.0 5.05e+02    -  9.90e-01 1.55e-02f  7
   7  4.1022510e+01 3.45e-05 2.21e+07  -1.0 1.14e+03    -  9.90e-01 3.09e-02f  6
   8  4.1135325e+01 5.83e-04 3.42e+05  -1.0 1.14e+03    -  1.00e+00 9.90e-01h  1
   9  4.1134422e+01 5.83e-06 1.21e+07  -1.0 9.64e+00    -  1.00e+00 9.90e-01h  1
iter    objective    inf_pr   inf_du lg(mu)  ||d||  lg(rg) alpha_du alpha_pr  ls
  10  4.1134410e+01 5.83e-08 1.21e+09  -1.0 1.21e-01    -  1.00e+00 9.90e-01h  1
  11  4.1134410e+01 5.83e-10 1.21e+11  -1.0 1.21e-03    -  1.00e+00 9.90e-01h  1
In iteration 11, 27 Slacks too small, adjusting variable bounds
  12  4.1134410e+01 5.63e-12 1.21e+13  -1.0 1.21e-05    -  1.00e+00 9.90e-01h  1
  13  4.1134410e+01 2.09e-12 9.96e-02  -1.0 6.95e-07    -  1.00e+00 1.00e+00h  1
  14  4.1134404e+01 5.62e-12 1.23e+13  -9.0 1.31e+03    -  9.98e-01 5.42e-05f 15
  15  4.1134397e+01 4.03e-12 1.23e+13  -9.0 1.16e+03    -  9.99e-01 6.10e-05f 15
  16  4.1134390e+01 6.42e-12 1.23e+13  -9.0 1.16e+03    -  1.00e+00 6.10e-05f 15
  17  4.1134388e+01 6.71e-12 1.23e+13  -9.0 1.16e+03    -  1.00e+00 1.53e-05f 17
  18  4.1134388e+01 6.93e-12 1.23e+13  -9.0 1.16e+03    -  1.00e+00 1.91e-06f 20
  19  4.1023271e+01 6.67e-04 2.23e+04  -9.0 1.16e+03    -  1.00e+00 1.00e+00f  1
iter    objective    inf_pr   inf_du lg(mu)  ||d||  lg(rg) alpha_du alpha_pr  ls
  20  4.1022268e+01 2.44e-09 1.64e-04  -9.0 1.01e+01    -  1.00e+00 1.00e+00h  1
  21  4.1022268e+01 3.89e-12 1.46e-11  -9.0 6.86e-05    -  1.00e+00 1.00e+00h  1

Number of Iterations....: 21

                                   (scaled)                 (unscaled)
Objective...............:   4.1022267852331261e+01    4.1022267852331261e+01
Dual infeasibility......:   1.4551915228366852e-11    1.4551915228366852e-11
Constraint violation....:   3.8871128538175981e-12    3.8871128538175981e-12
Complementarity.........:   9.0909101558647879e-10    9.0909101558647879e-10
Overall NLP error.......:   1.4766188165557092e-11    9.0909101558647879e-10


Number of objective function evaluations             = 128
Number of objective gradient evaluations             = 22
Number of equality constraint evaluations            = 128
Number of inequality constraint evaluations          = 0
Number of equality constraint Jacobian evaluations   = 22
Number of inequality constraint Jacobian evaluations = 0
Number of Lagrangian Hessian evaluations             = 21
Total CPU secs in IPOPT (w/o function evaluations)   =      0.047
Total CPU secs in NLP function evaluations           =      0.978

EXIT: Optimal Solution Found.
